NAME: random-39-11775
TYPE: TSP
COMMENT: size=39 seed=11775
DIMENSION: 80
EDGE_WEIGHT_TYPE: EUC_2D
NODE_COORD_SECTION
+0 425 419
-0 425 419
+1 119 834
-1 809 979
+2 619 593
-2 795 823
+3 52 221
-3 962 486
+4 831 745
-4 442 111
+5 820 333
-5 530 790
+6 939 87
-6 671 197
+7 394 993
-7 982 972
+8 570 899
-8 201 567
+9 222 293
-9 882 528
+10 949 657
-10 252 510
+11 738 190
-11 961 726
+12 833 389
-12 600 200
+13 747 261
-13 890 630
+14 84 757
-14 615 514
+15 706 970
-15 362 468
+16 576 123
-16 124 204
+17 827 479
-17 885 894
+18 611 355
-18 36 54
+19 65 317
-19 373 832
+20 816 878
-20 133 693
+21 394 561
-21 532 73
+22 629 36
-22 685 243
+23 324 729
-23 680 883
+24 656 699
-24 813 123
+25 353 852
-25 518 647
+26 105 493
-26 319 992
+27 279 357
-27 872 308
+28 465 889
-28 146 945
+29 43 490
-29 695 155
+30 563 924
-30 705 134
+31 673 574
-31 754 622
+32 540 417
-32 782 856
+33 360 66
-33 751 720
+34 677 961
-34 667 743
+35 894 922
-35 394 807
+36 434 239
-36 157 28
+37 329 106
-37 739 498
+38 477 481
-38 777 202
+39 651 804
-39 982 618
PRECEDENCE_SECTION
+0 -0
+1 -1
+2 -2
+3 -3
+4 -4
+5 -5
+6 -6
+7 -7
+8 -8
+9 -9
+10 -10
+11 -11
+12 -12
+13 -13
+14 -14
+15 -15
+16 -16
+17 -17
+18 -18
+19 -19
+20 -20
+21 -21
+22 -22
+23 -23
+24 -24
+25 -25
+26 -26
+27 -27
+28 -28
+29 -29
+30 -30
+31 -31
+32 -32
+33 -33
+34 -34
+35 -35
+36 -36
+37 -37
+38 -38
+39 -39
EOF
